NAME: GP0_250.hcp
COMMENT: 
TYPE: HCP
DIMENSION: 250
EDGE_DATA_FORMAT : EDGE_LIST
EDGE_DATA_SECTION
1 2
1 125
1 126
2 1
2 3
2 127
3 2
3 4
3 128
4 3
4 5
4 129
5 4
5 6
5 130
6 5
6 7
6 131
7 6
7 8
7 132
8 7
8 9
8 133
9 8
9 10
9 134
10 9
10 11
10 135
11 10
11 12
11 136
12 11
12 13
12 137
13 12
13 14
13 138
14 13
14 15
14 139
15 14
15 16
15 140
16 15
16 17
16 141
17 16
17 18
17 142
18 17
18 19
18 143
19 18
19 20
19 144
20 19
20 21
20 145
21 20
21 22
21 146
22 21
22 23
22 147
23 22
23 24
23 148
24 23
24 25
24 149
25 24
25 26
25 150
26 25
26 27
26 151
27 26
27 28
27 152
28 27
28 29
28 153
29 28
29 30
29 154
30 29
30 31
30 155
31 30
31 32
31 156
32 31
32 33
32 157
33 32
33 34
33 158
34 33
34 35
34 159
35 34
35 36
35 160
36 35
36 37
36 161
37 36
37 38
37 162
38 37
38 39
38 163
39 38
39 40
39 164
40 39
40 41
40 165
41 40
41 42
41 166
42 41
42 43
42 167
43 42
43 44
43 168
44 43
44 45
44 169
45 44
45 46
45 170
46 45
46 47
46 171
47 46
47 48
47 172
48 47
48 49
48 173
49 48
49 50
49 174
50 49
50 51
50 175
51 50
51 52
51 176
52 51
52 53
52 177
53 52
53 54
53 178
54 53
54 55
54 179
55 54
55 56
55 180
56 55
56 57
56 181
57 56
57 58
57 182
58 57
58 59
58 183
59 58
59 60
59 184
60 59
60 61
60 185
61 60
61 62
61 186
62 61
62 63
62 187
63 62
63 64
63 188
64 63
64 65
64 189
65 64
65 66
65 190
66 65
66 67
66 191
67 66
67 68
67 192
68 67
68 69
68 193
69 68
69 70
69 194
70 69
70 71
70 195
71 70
71 72
71 196
72 71
72 73
72 197
73 72
73 74
73 198
74 73
74 75
74 199
75 74
75 76
75 200
76 75
76 77
76 201
77 76
77 78
77 202
78 77
78 79
78 203
79 78
79 80
79 204
80 79
80 81
80 205
81 80
81 82
81 206
82 81
82 83
82 207
83 82
83 84
83 208
84 83
84 85
84 209
85 84
85 86
85 210
86 85
86 87
86 211
87 86
87 88
87 212
88 87
88 89
88 213
89 88
89 90
89 214
90 89
90 91
90 215
91 90
91 92
91 216
92 91
92 93
92 217
93 92
93 94
93 218
94 93
94 95
94 219
95 94
95 96
95 220
96 95
96 97
96 221
97 96
97 98
97 222
98 97
98 99
98 223
99 98
99 100
99 224
100 99
100 101
100 225
101 100
101 102
101 226
102 101
102 103
102 227
103 102
103 104
103 228
104 103
104 105
104 229
105 104
105 106
105 230
106 105
106 107
106 231
107 106
107 108
107 232
108 107
108 109
108 233
109 108
109 110
109 234
110 109
110 111
110 235
111 110
111 112
111 236
112 111
112 113
112 237
113 112
113 114
113 238
114 113
114 115
114 239
115 114
115 116
115 240
116 115
116 117
116 241
117 116
117 118
117 242
118 117
118 119
118 243
119 118
119 120
119 244
120 119
120 121
120 245
121 120
121 122
121 246
122 121
122 123
122 247
123 122
123 124
123 248
124 123
124 125
124 249
125 1
125 124
125 250
126 1
126 128
126 249
127 2
127 129
127 250
128 3
128 126
128 130
129 4
129 127
129 131
130 5
130 128
130 132
131 6
131 129
131 133
132 7
132 130
132 134
133 8
133 131
133 135
134 9
134 132
134 136
135 10
135 133
135 137
136 11
136 134
136 138
137 12
137 135
137 139
138 13
138 136
138 140
139 14
139 137
139 141
140 15
140 138
140 142
141 16
141 139
141 143
142 17
142 140
142 144
143 18
143 141
143 145
144 19
144 142
144 146
145 20
145 143
145 147
146 21
146 144
146 148
147 22
147 145
147 149
148 23
148 146
148 150
149 24
149 147
149 151
150 25
150 148
150 152
151 26
151 149
151 153
152 27
152 150
152 154
153 28
153 151
153 155
154 29
154 152
154 156
155 30
155 153
155 157
156 31
156 154
156 158
157 32
157 155
157 159
158 33
158 156
158 160
159 34
159 157
159 161
160 35
160 158
160 162
161 36
161 159
161 163
162 37
162 160
162 164
163 38
163 161
163 165
164 39
164 162
164 166
165 40
165 163
165 167
166 41
166 164
166 168
167 42
167 165
167 169
168 43
168 166
168 170
169 44
169 167
169 171
170 45
170 168
170 172
171 46
171 169
171 173
172 47
172 170
172 174
173 48
173 171
173 175
174 49
174 172
174 176
175 50
175 173
175 177
176 51
176 174
176 178
177 52
177 175
177 179
178 53
178 176
178 180
179 54
179 177
179 181
180 55
180 178
180 182
181 56
181 179
181 183
182 57
182 180
182 184
183 58
183 181
183 185
184 59
184 182
184 186
185 60
185 183
185 187
186 61
186 184
186 188
187 62
187 185
187 189
188 63
188 186
188 190
189 64
189 187
189 191
190 65
190 188
190 192
191 66
191 189
191 193
192 67
192 190
192 194
193 68
193 191
193 195
194 69
194 192
194 196
195 70
195 193
195 197
196 71
196 194
196 198
197 72
197 195
197 199
198 73
198 196
198 200
199 74
199 197
199 201
200 75
200 198
200 202
201 76
201 199
201 203
202 77
202 200
202 204
203 78
203 201
203 205
204 79
204 202
204 206
205 80
205 203
205 207
206 81
206 204
206 208
207 82
207 205
207 209
208 83
208 206
208 210
209 84
209 207
209 211
210 85
210 208
210 212
211 86
211 209
211 213
212 87
212 210
212 214
213 88
213 211
213 215
214 89
214 212
214 216
215 90
215 213
215 217
216 91
216 214
216 218
217 92
217 215
217 219
218 93
218 216
218 220
219 94
219 217
219 221
220 95
220 218
220 222
221 96
221 219
221 223
222 97
222 220
222 224
223 98
223 221
223 225
224 99
224 222
224 226
225 100
225 223
225 227
226 101
226 224
226 228
227 102
227 225
227 229
228 103
228 226
228 230
229 104
229 227
229 231
230 105
230 228
230 232
231 106
231 229
231 233
232 107
232 230
232 234
233 108
233 231
233 235
234 109
234 232
234 236
235 110
235 233
235 237
236 111
236 234
236 238
237 112
237 235
237 239
238 113
238 236
238 240
239 114
239 237
239 241
240 115
240 238
240 242
241 116
241 239
241 243
242 117
242 240
242 244
243 118
243 241
243 245
244 119
244 242
244 246
245 120
245 243
245 247
246 121
246 244
246 248
247 122
247 245
247 249
248 123
248 246
248 250
249 124
249 126
249 247
250 125
250 127
250 248
89 241
241 89
-1
EOF